NAME: cuum760.tsp
TYPE: TSP
COMMENT: User-generated TSP file
DIMENSION: 760
EDGE_WEIGHT_TYPE: EUC_2D
NODE_COORD_SECTION
1 95.0 119.0
2 61.0 207.0
3 638.0 530.0
4 312.0 183.0
5 139.0 492.0
6 599.0 757.0
7 230.0 211.0
8 374.0 572.0
9 532.0 305.0
10 28.0 54.0
11 166.0 142.0
12 157.0 97.0
13 760.0 122.0
14 565.0 306.0
15 263.0 322.0
16 437.0 60.0
17 44.0 652.0
18 30.0 493.0
19 631.0 154.0
20 508.0 85.0
21 707.0 214.0
22 717.0 385.0
23 564.0 308.0
24 138.0 414.0
25 31.0 182.0
26 513.0 195.0
27 258.0 94.0
28 315.0 687.0
29 248.0 302.0
30 688.0 219.0
31 713.0 378.0
32 234.0 634.0
33 667.0 33.0
34 59.0 433.0
35 337.0 30.0
36 449.0 454.0
37 613.0 455.0
38 667.0 392.0
39 552.0 728.0
40 557.0 392.0
41 532.0 38.0
42 375.0 213.0
43 705.0 74.0
44 482.0 558.0
45 707.0 689.0
46 159.0 412.0
47 603.0 61.0
48 574.0 426.0
49 484.0 597.0
50 570.0 126.0
51 692.0 614.0
52 692.0 131.0
53 60.0 173.0
54 172.0 23.0
55 46.0 522.0
56 113.0 339.0
57 395.0 16.0
58 415.0 535.0
59 690.0 688.0
60 535.0 678.0
61 707.0 693.0
62 413.0 80.0
63 666.0 652.0
64 231.0 414.0
65 654.0 49.0
66 499.0 454.0
67 708.0 623.0
68 220.0 156.0
69 135.0 262.0
70 701.0 530.0
71 5.0 205.0
72 681.0 614.0
73 457.0 700.0
74 15.0 167.0
75 610.0 494.0
76 559.0 246.0
77 535.0 637.0
78 411.0 88.0
79 748.0 108.0
80 701.0 7.0
81 265.0 328.0
82 419.0 96.0
83 586.0 497.0
84 530.0 104.0
85 101.0 716.0
86 146.0 704.0
87 650.0 571.0
88 201.0 437.0
89 707.0 524.0
90 409.0 39.0
91 482.0 252.0
92 217.0 160.0
93 165.0 586.0
94 197.0 47.0
95 563.0 159.0
96 747.0 419.0
97 120.0 148.0
98 447.0 741.0
99 513.0 107.0
100 172.0 568.0
101 191.0 668.0
102 150.0 180.0
103 386.0 207.0
104 613.0 628.0
105 398.0 646.0
106 37.0 38.0
107 85.0 38.0
108 273.0 217.0
109 555.0 575.0
110 230.0 160.0
111 220.0 339.0
112 665.0 49.0
113 741.0 631.0
114 642.0 431.0
115 671.0 526.0
116 573.0 93.0
117 292.0 340.0
118 748.0 236.0
119 652.0 710.0
120 318.0 595.0
121 361.0 176.0
122 250.0 628.0
123 398.0 109.0
124 473.0 327.0
125 380.0 182.0
126 326.0 86.0
127 312.0 551.0
128 478.0 743.0
129 669.0 623.0
130 450.0 704.0
131 643.0 317.0
132 488.0 411.0
133 328.0 572.0
134 428.0 97.0
135 689.0 218.0
136 721.0 204.0
137 712.0 469.0
138 636.0 554.0
139 157.0 373.0
140 481.0 429.0
141 432.0 683.0
142 610.0 67.0
143 136.0 160.0
144 244.0 126.0
145 637.0 626.0
146 730.0 409.0
147 637.0 4.0
148 590.0 89.0
149 68.0 507.0
150 719.0 687.0
151 162.0 256.0
152 539.0 423.0
153 347.0 18.0
154 649.0 206.0
155 196.0 566.0
156 511.0 555.0
157 341.0 98.0
158 99.0 33.0
159 616.0 747.0
160 18.0 460.0
161 151.0 356.0
162 679.0 745.0
163 480.0 23.0
164 559.0 682.0
165 21.0 588.0
166 647.0 492.0
167 324.0 706.0
168 246.0 631.0
169 572.0 735.0
170 564.0 305.0
171 418.0 725.0
172 343.0 152.0
173 461.0 71.0
174 567.0 149.0
175 734.0 108.0
176 615.0 164.0
177 110.0 459.0
178 249.0 383.0
179 372.0 484.0
180 92.0 386.0
181 293.0 234.0
182 77.0 321.0
183 518.0 595.0
184 109.0 240.0
185 604.0 397.0
186 606.0 422.0
187 346.0 104.0
188 615.0 323.0
189 695.0 437.0
190 103.0 544.0
191 568.0 499.0
192 27.0 212.0
193 442.0 286.0
194 354.0 158.0
195 165.0 269.0
196 431.0 375.0
197 28.0 675.0
198 442.0 573.0
199 665.0 622.0
200 467.0 744.0
201 579.0 444.0
202 490.0 654.0
203 447.0 272.0
204 514.0 16.0
205 460.0 137.0
206 57.0 228.0
207 653.0 677.0
208 590.0 390.0
209 73.0 316.0
210 166.0 89.0
211 243.0 207.0
212 119.0 721.0
213 291.0 598.0
214 388.0 693.0
215 680.0 349.0
216 37.0 375.0
217 412.0 261.0
218 349.0 705.0
219 65.0 259.0
220 61.0 213.0
221 265.0 713.0
222 109.0 167.0
223 698.0 752.0
224 616.0 235.0
225 73.0 28.0
226 7.0 309.0
227 261.0 463.0
228 377.0 596.0
229 402.0 227.0
230 532.0 368.0
231 197.0 668.0
232 458.0 488.0
233 191.0 4.0
234 690.0 529.0
235 721.0 347.0
236 118.0 449.0
237 454.0 559.0
238 452.0 593.0
239 611.0 170.0
240 395.0 209.0
241 548.0 420.0
242 426.0 63.0
243 387.0 640.0
244 323.0 455.0
245 578.0 426.0
246 577.0 544.0
247 701.0 143.0
248 194.0 546.0
249 538.0 734.0
250 379.0 551.0
251 742.0 753.0
252 710.0 525.0
253 717.0 25.0
254 87.0 91.0
255 220.0 469.0
256 430.0 744.0
257 467.0 568.0
258 175.0 156.0
259 677.0 347.0
260 438.0 21.0
261 742.0 588.0
262 209.0 48.0
263 685.0 191.0
264 366.0 176.0
265 367.0 146.0
266 469.0 313.0
267 455.0 262.0
268 631.0 125.0
269 679.0 532.0
270 213.0 187.0
271 730.0 147.0
272 291.0 449.0
273 339.0 44.0
274 314.0 571.0
275 756.0 33.0
276 666.0 705.0
277 244.0 573.0
278 395.0 723.0
279 450.0 140.0
280 689.0 693.0
281 370.0 162.0
282 755.0 71.0
283 287.0 113.0
284 503.0 529.0
285 242.0 756.0
286 367.0 251.0
287 350.0 610.0
288 33.0 135.0
289 69.0 341.0
290 100.0 150.0
291 311.0 107.0
292 78.0 638.0
293 395.0 248.0
294 760.0 528.0
295 655.0 731.0
296 594.0 387.0
297 555.0 635.0
298 212.0 358.0
299 163.0 241.0
300 406.0 92.0
301 556.0 433.0
302 581.0 149.0
303 287.0 677.0
304 354.0 252.0
305 428.0 464.0
306 625.0 442.0
307 144.0 716.0
308 71.0 540.0
309 566.0 329.0
310 494.0 579.0
311 363.0 592.0
312 172.0 498.0
313 285.0 703.0
314 288.0 401.0
315 657.0 39.0
316 433.0 133.0
317 368.0 591.0
318 736.0 605.0
319 52.0 166.0
320 483.0 730.0
321 26.0 249.0
322 70.0 185.0
323 734.0 708.0
324 393.0 130.0
325 310.0 449.0
326 470.0 322.0
327 368.0 355.0
328 590.0 139.0
329 237.0 168.0
330 676.0 441.0
331 465.0 181.0
332 83.0 103.0
333 136.0 405.0
334 344.0 129.0
335 364.0 63.0
336 433.0 41.0
337 399.0 705.0
338 247.0 280.0
339 121.0 490.0
340 436.0 557.0
341 580.0 285.0
342 163.0 305.0
343 595.0 541.0
344 711.0 653.0
345 99.0 270.0
346 307.0 249.0
347 452.0 466.0
348 188.0 241.0
349 653.0 554.0
350 417.0 513.0
351 736.0 393.0
352 633.0 4.0
353 454.0 590.0
354 215.0 471.0
355 692.0 709.0
356 617.0 700.0
357 598.0 223.0
358 263.0 649.0
359 751.0 354.0
360 668.0 499.0
361 436.0 421.0
362 676.0 548.0
363 5.0 280.0
364 555.0 686.0
365 661.0 701.0
366 123.0 42.0
367 242.0 222.0
368 316.0 587.0
369 97.0 548.0
370 456.0 548.0
371 380.0 648.0
372 53.0 500.0
373 443.0 48.0
374 145.0 134.0
375 308.0 411.0
376 490.0 20.0
377 352.0 86.0
378 140.0 446.0
379 176.0 421.0
380 57.0 268.0
381 79.0 230.0
382 678.0 82.0
383 567.0 672.0
384 152.0 625.0
385 91.0 145.0
386 91.0 278.0
387 315.0 386.0
388 699.0 200.0
389 417.0 491.0
390 740.0 603.0
391 746.0 500.0
392 588.0 99.0
393 618.0 88.0
394 323.0 751.0
395 347.0 336.0
396 506.0 186.0
397 406.0 350.0
398 342.0 239.0
399 629.0 693.0
400 728.0 447.0
401 312.0 276.0
402 107.0 752.0
403 751.0 631.0
404 604.0 75.0
405 253.0 411.0
406 210.0 511.0
407 28.0 543.0
408 303.0 654.0
409 348.0 741.0
410 425.0 180.0
411 167.0 615.0
412 114.0 230.0
413 729.0 139.0
414 354.0 536.0
415 130.0 341.0
416 706.0 223.0
417 220.0 459.0
418 235.0 481.0
419 374.0 550.0
420 301.0 394.0
421 302.0 436.0
422 760.0 305.0
423 369.0 65.0
424 164.0 244.0
425 60.0 446.0
426 32.0 138.0
427 145.0 366.0
428 362.0 503.0
429 695.0 435.0
430 160.0 99.0
431 488.0 551.0
432 758.0 384.0
433 279.0 720.0
434 65.0 728.0
435 425.0 564.0
436 204.0 289.0
437 361.0 113.0
438 596.0 97.0
439 144.0 665.0
440 514.0 36.0
441 522.0 707.0
442 737.0 627.0
443 104.0 630.0
444 2.0 195.0
445 624.0 367.0
446 216.0 570.0
447 6.0 63.0
448 525.0 115.0
449 259.0 337.0
450 90.0 66.0
451 76.0 228.0
452 271.0 492.0
453 94.0 361.0
454 78.0 291.0
455 436.0 600.0
456 107.0 409.0
457 719.0 669.0
458 152.0 330.0
459 270.0 565.0
460 33.0 324.0
461 452.0 6.0
462 494.0 46.0
463 707.0 180.0
464 225.0 123.0
465 269.0 431.0
466 181.0 394.0
467 320.0 346.0
468 744.0 418.0
469 96.0 261.0
470 421.0 581.0
471 552.0 382.0
472 276.0 563.0
473 709.0 320.0
474 438.0 199.0
475 597.0 656.0
476 649.0 571.0
477 44.0 282.0
478 411.0 528.0
479 347.0 14.0
480 14.0 7.0
481 321.0 727.0
482 296.0 146.0
483 499.0 237.0
484 673.0 498.0
485 510.0 557.0
486 237.0 124.0
487 666.0 194.0
488 131.0 207.0
489 613.0 36.0
490 419.0 297.0
491 191.0 633.0
492 471.0 749.0
493 708.0 534.0
494 681.0 25.0
495 527.0 736.0
496 339.0 728.0
497 563.0 125.0
498 615.0 265.0
499 12.0 617.0
500 153.0 612.0
501 348.0 662.0
502 337.0 57.0
503 320.0 203.0
504 495.0 521.0
505 643.0 146.0
506 629.0 393.0
507 360.0 335.0
508 642.0 258.0
509 532.0 588.0
510 471.0 46.0
511 618.0 174.0
512 134.0 666.0
513 28.0 629.0
514 220.0 72.0
515 194.0 497.0
516 5.0 730.0
517 73.0 654.0
518 663.0 613.0
519 122.0 707.0
520 144.0 267.0
521 173.0 616.0
522 372.0 215.0
523 152.0 11.0
524 155.0 112.0
525 11.0 742.0
526 605.0 232.0
527 54.0 18.0
528 3.0 337.0
529 287.0 663.0
530 458.0 168.0
531 353.0 246.0
532 402.0 291.0
533 227.0 759.0
534 630.0 179.0
535 750.0 598.0
536 727.0 181.0
537 379.0 14.0
538 424.0 318.0
539 69.0 429.0
540 443.0 5.0
541 231.0 655.0
542 110.0 615.0
543 147.0 528.0
544 737.0 338.0
545 718.0 141.0
546 116.0 191.0
547 750.0 20.0
548 138.0 295.0
549 671.0 571.0
550 539.0 554.0
551 358.0 343.0
552 335.0 235.0
553 487.0 227.0
554 416.0 27.0
555 510.0 167.0
556 503.0 578.0
557 47.0 336.0
558 449.0 641.0
559 742.0 298.0
560 83.0 62.0
561 426.0 315.0
562 271.0 12.0
563 106.0 393.0
564 614.0 718.0
565 143.0 697.0
566 172.0 145.0
567 257.0 109.0
568 667.0 599.0
569 573.0 161.0
570 265.0 297.0
571 236.0 26.0
572 8.0 658.0
573 18.0 713.0
574 334.0 393.0
575 722.0 594.0
576 325.0 505.0
577 172.0 472.0
578 589.0 252.0
579 722.0 326.0
580 58.0 745.0
581 380.0 115.0
582 464.0 254.0
583 305.0 202.0
584 282.0 627.0
585 618.0 697.0
586 575.0 395.0
587 101.0 620.0
588 328.0 19.0
589 632.0 220.0
590 459.0 684.0
591 581.0 54.0
592 149.0 742.0
593 386.0 351.0
594 281.0 618.0
595 571.0 562.0
596 367.0 581.0
597 466.0 8.0
598 384.0 489.0
599 698.0 279.0
600 627.0 43.0
601 156.0 360.0
602 493.0 371.0
603 85.0 474.0
604 127.0 30.0
605 666.0 15.0
606 241.0 437.0
607 73.0 683.0
608 503.0 609.0
609 638.0 701.0
610 138.0 31.0
611 719.0 604.0
612 143.0 142.0
613 255.0 337.0
614 709.0 354.0
615 499.0 145.0
616 476.0 27.0
617 541.0 459.0
618 662.0 104.0
619 740.0 54.0
620 229.0 526.0
621 244.0 270.0
622 176.0 120.0
623 359.0 9.0
624 90.0 634.0
625 510.0 422.0
626 517.0 215.0
627 511.0 16.0
628 137.0 514.0
629 581.0 134.0
630 526.0 130.0
631 647.0 417.0
632 453.0 713.0
633 171.0 321.0
634 386.0 549.0
635 123.0 651.0
636 382.0 571.0
637 256.0 727.0
638 681.0 324.0
639 181.0 697.0
640 224.0 255.0
641 362.0 528.0
642 395.0 74.0
643 245.0 201.0
644 460.0 331.0
645 475.0 630.0
646 365.0 294.0
647 537.0 432.0
648 443.0 536.0
649 532.0 674.0
650 419.0 175.0
651 176.0 172.0
652 259.0 343.0
653 590.0 758.0
654 648.0 282.0
655 48.0 353.0
656 23.0 61.0
657 444.0 697.0
658 456.0 35.0
659 510.0 401.0
660 532.0 275.0
661 722.0 253.0
662 458.0 172.0
663 470.0 77.0
664 385.0 450.0
665 502.0 421.0
666 724.0 665.0
667 216.0 284.0
668 179.0 302.0
669 347.0 41.0
670 545.0 726.0
671 728.0 747.0
672 613.0 468.0
673 333.0 458.0
674 528.0 391.0
675 165.0 638.0
676 467.0 488.0
677 658.0 707.0
678 155.0 653.0
679 386.0 581.0
680 4.0 87.0
681 664.0 503.0
682 273.0 244.0
683 724.0 515.0
684 286.0 725.0
685 248.0 282.0
686 638.0 499.0
687 24.0 633.0
688 245.0 27.0
689 8.0 148.0
690 711.0 690.0
691 252.0 457.0
692 300.0 574.0
693 48.0 527.0
694 247.0 255.0
695 257.0 52.0
696 413.0 480.0
697 99.0 711.0
698 648.0 260.0
699 491.0 154.0
700 87.0 218.0
701 655.0 760.0
702 415.0 268.0
703 24.0 461.0
704 416.0 302.0
705 281.0 143.0
706 729.0 751.0
707 116.0 630.0
708 267.0 253.0
709 425.0 293.0
710 373.0 141.0
711 522.0 178.0
712 668.0 280.0
713 529.0 537.0
714 593.0 293.0
715 526.0 282.0
716 107.0 172.0
717 306.0 140.0
718 142.0 373.0
719 147.0 434.0
720 101.0 672.0
721 79.0 354.0
722 446.0 91.0
723 105.0 700.0
724 638.0 641.0
725 39.0 345.0
726 300.0 288.0
727 425.0 66.0
728 429.0 400.0
729 439.0 378.0
730 29.0 302.0
731 623.0 210.0
732 191.0 309.0
733 528.0 74.0
734 521.0 464.0
735 220.0 149.0
736 100.0 212.0
737 621.0 509.0
738 398.0 743.0
739 189.0 146.0
740 676.0 106.0
741 109.0 660.0
742 239.0 173.0
743 606.0 587.0
744 30.0 47.0
745 564.0 567.0
746 747.0 155.0
747 627.0 514.0
748 484.0 709.0
749 58.0 431.0
750 584.0 417.0
751 248.0 339.0
752 609.0 685.0
753 101.0 337.0
754 651.0 338.0
755 94.0 730.0
756 245.0 158.0
757 196.0 194.0
758 575.0 659.0
759 151.0 344.0
760 6.0 499.0
EOF





